LAMMPS (10 Feb 2015)
# input script for topotools tutorial step 2a
units real
boundary p p p
atom_style full

read_restart 64xmethane-eq.restart
  orthogonal box = (-8.297 -8.1455 -7.2013) to (8.3174 8.1829 7.1735)
  1 by 1 by 1 MPI processor grid
  320 atoms
  256 bonds
  384 angles
  4 = max # of 1-2 neighbors
  3 = max # of 1-3 neighbors
  3 = max # of 1-4 neighbors
  4 = max # of special neighbors

# interaction styles
pair_style lj/cut/coul/cut 12.0
bond_style harmonic
angle_style harmonic
#dihedral_style opls
pair_modify mix geometric tail yes

# OPLS considers 1-4 interactions with 50%.
special_bonds lj/coul 0.0 0.0 0.5

# force field parameters
pair_coeff   1 1  0.066 3.5      # CT
pair_coeff   2 2  0.03  2.5      # HC
# the remaining parameters are inferred from mixing.
bond_coeff   1   340.0   1.09    # CT-HC
angle_coeff  1    33.0 107.8     # HC-CT-HC

# equilibration. real methane freezes at 91K and boils at 112K
# so we hope the force field has it as a liquid at 100K.
timestep 0.25
reset_timestep 0
neighbor 1.5 bin
neigh_modify every 10 delay 20 check yes
thermo 400
thermo_style one

fix 2 all nvt temp 100.0 100.0 100.0

# equilibration trajectory

# dump 1 all dcd 400 64xmethane-nvt.dcd
dump 1 all custom 400 64xmethane-nvt.lammpstrj id type x y z ix iy iz
#dump_modify 1 unwrap no

# output log
# log log.64xmethane-nvt

# 10.0ps
run 40000
Neighbor list info ...
  1 neighbor list requests
  update every 10 steps, delay 20 steps, check yes
  master list distance cutoff = 13.5
Memory usage per processor = 8.69091 Mbytes
Step Temp E_pair E_mol TotEng Press 
       0    99.699704   -154.31804    64.495298    4.9795486   -2841.6646 
     400    102.18008   -108.61436    64.261231    52.807704    1848.4216 
     800    101.51832   -105.12539    70.798761    62.204945   -3501.2843 
    1200    104.85855   -125.10775    71.516302    46.116281    2415.9461 
    1600    96.998043   -72.911294     72.25123    91.573281   -2292.6491 
    2000    95.938372     -76.6826    70.169155    84.712282    1918.1434 
    2400    97.295782   -78.576027     65.24482    79.185251    -2682.637 
    2800    92.047695   -110.74159    70.759982    47.544561    1379.9204 
    3200    104.22842   -133.99502    67.493589    32.607118   -1878.2391 
    3600    104.14393   -123.51587    64.550715    40.063054    6.1760784 
    4000     97.00878   -116.56418    68.483775    44.163144   -347.66766 
    4400     106.6057   -120.26843     62.04236    43.142988   -276.41202 
    4800    99.914697   -150.32594    65.992843    10.673632   -911.67942 
    5200    100.75587   -106.88989    65.507164    54.423857    84.474243 
    5600    101.14823    -90.82177     68.58507    73.942964   -877.28658 
    6000    93.955341   -110.74374    66.609048    45.205412    128.78652 
    6400    92.628111   -142.48014    67.375654    12.973585   -1224.4211 
    6800    99.997558   -118.38321    71.011129    47.713433   -98.836739 
    7200     100.9698   -122.71741    70.639805    43.932398   -1904.4399 
    7600    102.55287   -110.72499    66.646883      53.4372    1079.5817 
    8000    93.677695   -83.872187     65.02356     70.22747   -2345.9626 
    8400    94.859755   -120.29717    61.826658    31.729583    1959.1458 
    8800    104.04226   -139.26191    64.499009     24.16864   -3445.9056 
    9200    105.12357   -112.93962    63.900579    50.920695    2728.6099 
    9600    103.85797   -131.40842    63.694627    31.042516   -2217.6048 
   10000    102.55478   -100.44134    62.895104     59.97089    1160.2464 
   10400    89.532572   -137.32443    64.230612    12.040771   -1817.1604 
   10800    91.250686   -99.573248    63.359597    50.554656    299.67453 
   11200    95.594096   -94.748602    68.811018    64.960778   -1134.0614 
   11600    96.717639   -132.79416    69.989453     29.16201   -326.87941 
   12000    104.68771    -140.9818    68.033429    26.596911    -1024.214 
   12400    96.705023   -159.66143    67.722352   0.01563768    -1383.566 
   12800    97.054258     -172.894    63.253619   -17.353581   -535.80475 
   13200      98.9447   -113.16096     60.55471    41.478127   -2006.2046 
   13600    105.05882   -88.317811     68.08306    79.663412    782.94479 
   14000    107.36993   -142.64294    64.046473    23.499277   -1927.1424 
   14400    99.755223    -119.3447     65.15548    40.665865    808.81671 
   14800    94.041944   -137.23279    67.211431    19.401099   -1963.5381 
   15200    99.100319   -131.61121    60.692958    23.314099    105.21605 
   15600    102.87938   -86.855016    70.411768     81.38253   -1168.2347 
   16000    102.33545   -103.12103    72.060137    66.247682    444.81666 
   16400    102.27673   -70.938622    67.364955    93.679063    -1662.956 
   16800    96.547798   -81.196617    67.380217    77.988816    1123.4637 
   17200    103.49411   -121.40354    63.501753    40.508532   -2646.5471 
   17600    100.13108   -87.846155    66.561861    73.928186     1006.724 
   18000    108.38479   -121.03553    65.405074    47.430298   -1354.5026 
   18400     113.0929   -80.527038    65.453099    92.463656   -611.50934 
   18800    99.133015   -80.010975      66.5225    80.774968    488.76731 
   19200    102.30238   -130.38354    60.357367    27.250949    -2394.376 
   19600    96.790744   -129.10804    67.069653    29.997842    1105.6819 
   20000    105.16683   -118.17687    65.455216    47.279209   -1647.8289 
   20400    105.70698   -90.625193    70.698969     80.58826     410.2422 
   20800    103.53984   -120.79658    67.834178     45.49139   -977.97868 
   21200    101.43154   -101.56922    66.527999    61.407843   -160.46637 
   21600    98.670006    -126.5834    69.109206    36.348979   -326.73021 
   22000    97.953943   -94.391435    64.079088    62.829942   -615.34146 
   22400    96.011555   -120.61994    66.705285     37.38066   -193.22166 
   22800    102.39627   -136.39615    65.466675    26.436925   -884.32994 
   23200    107.82018   -125.42796    67.117198    44.213115   -1300.4477 
   23600    102.73695   -137.18586    67.252953    27.757447    641.48035 
   24000    96.460847   -130.94495     63.38271    24.160292   -1791.2607 
   24400    93.796128   -128.00562    66.260634    27.443723    873.89034 
   24800    97.353953   -88.444384    65.413912    69.541299   -1871.9361 
   25200    97.091705   -72.044164    68.948627    89.226868    1280.3854 
   25600    98.648844   -101.58799    69.181915     61.39698   -1381.2537 
   26000    100.18179   -113.04929    70.844246    53.055655    322.01702 
   26400    100.74179   -104.51281    65.785089    57.065472   -862.08064 
   26800    90.111333   -140.38641    64.022143    9.3206518   -1640.9138 
   27200    93.312795   -79.845805    65.409942    74.293259      1708.28 
   27600    102.23172   -106.33538    64.085536    54.960091   -2880.6641 
   28000    104.37293    -132.5739    67.313593    33.985652    2121.8475 
   28400    104.29906   -100.21983    63.724249    62.680139   -3296.3716 
   28800    94.003175   -122.52092    64.940063    31.804732    2161.5287 
   29200    94.690933   -107.85189    60.393659    42.581332   -3090.7786 
   29600    100.45435   -106.02294    65.173795    54.670729    1118.3437 
   30000    95.933737   -106.07038     73.00091    58.151849   -2084.8456 
   30400    103.68687   -143.55908    65.248786    20.283316    501.20335 
   30800    97.692654   -138.68435    68.825851    23.035334   -1481.6139 
   31200     93.87282   -67.819013    64.431207    85.873831    770.99042 
   31600    99.300147   -131.38177    64.693462    27.734055   -708.48547 
   32000    108.07854   -118.32754    66.398747    50.840756    63.553384 
   32400    101.28547   -80.220498    70.990371    87.080037     -879.064 
   32800    101.25503   -142.74593    65.741528    19.276815   -212.82716 
   33200    97.691616   -112.33942      65.6407    46.194124   -1766.6266 
   33600     98.92508   -80.130148    66.951634    80.887209    556.92298 
   34000    100.03798   -108.23665    67.279003    54.166304   -1814.8718 
   34400    99.722709   -78.827618    66.909952    82.906505    1165.8056 
   34800    103.63061   -96.346199    63.358837    65.552749   -1107.3729 
   35200     101.8862   -102.27943    67.786509    62.388464   -302.68667 
   35600    100.13402   -127.74167    64.224915    31.698523    82.545283 
   36000    95.371028   -140.54681    62.893418    13.032857   -2067.3795 
   36400    94.414731   -55.311766    62.651462    97.116625    1175.4557 
   36800    98.210629    -78.11667    67.874187    83.143884   -2768.3386 
   37200    104.41074   -74.965133    66.733494    91.050276    2618.9021 
   37600    102.60834   -118.49539    67.997417    47.070082   -3807.4432 
   38000    98.134676   -119.73954    68.111463    41.686068    3065.6292 
   38400    94.150428   -106.43544    63.828484     46.91865   -3758.2934 
   38800    98.217332   -128.75227    62.694161    27.334629    2640.2861 
   39200    98.074978   -84.579023    68.094849    76.773204   -3198.9899 
   39600    102.11461   -132.45673    64.385846    29.027687    1515.9944 
   40000     97.92377   -130.67506    67.384102    29.822642     -2705.14 
Loop time of 128.128 on 1 procs for 40000 steps with 320 atoms

Pair  time (%) = 122.114 (95.3066)
Bond  time (%) = 1.99746 (1.55896)
Neigh time (%) = 1.6241 (1.26756)
Comm  time (%) = 1.58726 (1.23881)
Outpt time (%) = 0.103604 (0.0808597)
Other time (%) = 0.701099 (0.547186)

Nlocal:    320 ave 320 max 320 min
Histogram: 1 0 0 0 0 0 0 0 0 0
Nghost:    6149 ave 6149 max 6149 min
Histogram: 1 0 0 0 0 0 0 0 0 0
Neighs:    134624 ave 134624 max 134624 min
Histogram: 1 0 0 0 0 0 0 0 0 0

Total # of neighbors = 134624
Ave neighs/atom = 420.7
Ave special neighs/atom = 4
Neighbor list builds = 267
Dangerous builds = 0

# keep a restart of this, too.
write_restart 64xmethane-nvt.restart
# this still has not been relaxed for pressure,
# but it should be pretty close.

